Maximize
score: + 9587 c0 + 192 c1 + 24 c2 + 10 c3 + 5684 c4 + 2030 c5 + 25 c6 + 27202 c7 + 4953 c8 + 1218 c9 + 56 c10 + 36 c11 + 21 c12 + 30 c13 + 36 c14 + 422 c15 + 144 c16 + 156 c17 + 25 c18 + 29 c19 + 117 c20 + 469 c21 + 216 c22 + 36 c23 + 36 c24 + 164 c25 + 121 c26 + 118 c27 + 153 c28 + 2964 c29 + 684 c30 + 41 c31 + 204 c32 + 4437 c33 + 165 c34 + 37 c35 + 10 c36 + 506 c37 + 45 c38 + 121 c39 + 121 c40 + 29 c41 + 135 c42 + 179 c43 + 21 c44 + 50 c45 + 156 c46 + 126 c47 + 99 c48 + 598 c49 + 169 c50 + 3078 c51 + 804 c52 + 48 c53 + 231 c54 + 189 c55 + 32 c56 + 143 c57 + 296 c58

Subject To
index_0: s0 + s2 + s3 + s4 + s6 + s8 + s10 + s12 + s14 + s16 + s18 + s20 + s22 + s24 + s26 + s28 + s30 + s31 + s32 + s34 + s36 + s38 + s40 + s42 + s44 + s46 + s48 + s50 + s52 + s54 + s56 + s58 + s60 + s62 + s64 + s66 + s68 + s69 + s70 + s72 + s74 + s75 + s77 + s79 + s80 + s81 + s83 + s85 + s86 + s89 + s95 + s96 + s98 + s100 + s102 + s104 + s106 + s108 + s109 + s110 + s111 + s113 + s115 + s119 + s120 + s122 + s124 + s126 + s128 + s130 + s134 + s136 + s138 + s140 + s141 + s142 + s143 + s145 + s146 + s147 + s149 + s151 + s153 + s155 + s156 + s158 + s160 + s162 + s163 + s164 + s166 + s168 + s170 + s172 + s174 + s175 + s177 + s178 + s180 + s182 + s184 + s186 + s188 + s190 + s192 + s194 + s196 + s198 + s200 + s202 - c0 >= 0
index_1: s48 + s50 + s54 + s56 + s79 + s80 + s91 + s174 + s190 + s192 - c1 >= 0
index_2: s10 + s12 + s58 + s96 + s98 + s100 + s109 + s113 + s124 + s126 + s128 + s130 - c2 >= 0
index_3: s85 + s86 + s88 + s89 + s91 + s110 + s111 + s115 - c3 >= 0
index_4: s74 + s79 + s80 + s83 + s84 + s85 + s87 + s88 + s90 + s92 + s95 + s96 + s97 + s99 + s102 + s103 + s104 + s105 + s108 + s110 + s112 + s116 + s122 + s123 + s125 + s127 + s129 + s131 - c4 >= 0
index_5: s86 + s89 + s91 + s98 + s111 + s115 + s124 + s126 + s128 + s130 - c5 >= 0
index_6: s16 + s30 + s42 + s70 + s178 - c6 >= 0
index_7: s0 + s1 + s3 + s4 + s5 + s6 + s7 + s10 + s11 + s12 + s13 + s14 + s15 + s16 + s17 + s20 + s21 + s22 + s23 + s28 + s29 + s31 + s32 + s33 + s34 + s35 + s36 + s37 + s38 + s39 + s40 + s41 + s42 + s43 + s46 + s47 + s48 + s49 + s50 + s51 + s52 + s53 + s54 + s55 + s56 + s57 + s58 + s59 + s60 + s61 + s62 + s63 + s64 + s65 + s66 + s67 + s68 + s69 + s70 + s71 + s72 + s73 + s75 + s76 + s77 + s78 + s81 + s82 + s93 + s94 + s100 + s101 + s106 + s107 + s114 + s117 + s118 + s120 + s121 + s132 + s133 + s134 + s135 + s136 + s137 + s141 + s142 + s143 + s144 + s147 + s148 + s149 + s150 + s151 + s152 + s153 + s154 + s156 + s157 + s158 + s159 + s160 + s161 + s163 + s166 + s167 + s168 + s169 + s170 + s171 + s172 + s173 + s175 + s176 + s178 + s179 + s180 + s181 + s182 + s183 + s188 + s189 + s190 + s191 + s192 + s193 + s194 + s195 + s196 + s197 + s198 + s199 + s200 + s201 - c7 >= 0
index_8: s2 + s8 + s18 + s24 + s25 + s26 + s30 + s44 + s45 + s109 + s113 + s119 + s138 + s145 + s153 + s155 + s162 + s164 + s174 + s177 + s184 + s185 + s186 + s187 + s202 - c8 >= 0
index_9: s9 + s19 + s27 + s139 + s140 + s165 - c9 >= 0
index_10: s48 + s56 + s64 + s68 + s96 + s98 + s192 - c10 >= 0
index_11: s26 + s58 + s64 + s68 + s86 + s120 - c11 >= 0
index_12: s24 + s26 + s56 + s124 + s158 + s170 - c12 >= 0
index_13: s60 + s62 + s64 + s68 + s186 - c13 >= 0
index_14: s6 + s16 + s30 + s42 + s70 + s178 - c14 >= 0
index_15: s26 + s48 + s50 + s54 + s56 + s58 + s68 + s79 + s80 + s86 + s91 + s120 + s126 + s174 + s190 + s192 - c15 >= 0
index_16: s22 + s24 + s26 + s119 + s132 + s166 + s170 + s172 - c16 >= 0
index_17: s56 + s79 + s81 + s100 + s109 + s119 + s124 + s132 + s192 - c17 >= 0
index_18: s44 + s46 + s143 + s151 + s158 - c18 >= 0
index_19: s2 + s48 + s182 + s186 + s188 - c19 >= 0
index_20: s24 + s32 + s81 + s100 + s109 + s124 + s132 + s145 + s166 + s170 + s192 - c20 >= 0
index_21: s0 + s22 + s24 + s32 + s36 + s44 + s50 + s56 + s134 + s138 + s147 + s153 + s170 - c21 >= 0
index_22: s6 + s8 + s12 + s18 + s24 + s26 + s30 + s66 - c22 >= 0
index_23: s32 + s62 + s136 + s138 + s200 + s202 - c23 >= 0
index_24: s50 + s160 + s162 + s180 + s186 + s202 - c24 >= 0
index_25: s70 + s72 + s77 + s79 + s81 + s83 + s95 + s100 + s106 + s109 + s113 + s115 + s119 + s120 + s186 + s192 - c25 >= 0
index_26: s6 + s16 + s30 + s40 + s42 + s70 + s145 + s156 + s160 + s162 + s178 - c26 >= 0
index_27: s14 + s16 + s70 + s72 + s77 + s106 + s113 + s115 + s119 + s134 + s202 - c27 >= 0
index_28: s8 + s48 + s56 + s58 + s60 + s62 + s64 + s66 + s68 + s80 + s86 - c28 >= 0
index_29: s0 + s2 + s8 + s12 + s14 + s16 + s20 + s24 + s30 + s32 + s34 + s58 + s66 + s70 + s72 + s77 + s91 + s109 + s111 + s119 + s120 + s136 + s138 + s143 + s145 + s147 + s155 + s156 + s162 + s163 + s166 + s190 + s202 - c29 >= 0
index_30: s32 + s40 + s42 + s54 + s147 + s174 + s177 + s190 + s198 - c30 >= 0
index_31: s155 + s162 + s164 + s172 + s184 + s202 - c31 >= 0
index_32: s8 + s28 + s30 + s60 + s62 + s64 + s66 + s68 + s69 + s70 + s72 + s96 + s98 + s108 + s110 + s122 + s124 + s138 + s178 - c32 >= 0
index_33: s0 + s2 + s4 + s14 + s16 + s18 + s22 + s24 + s26 + s30 + s32 + s34 + s36 + s44 + s48 + s50 + s54 + s56 + s77 + s79 + s120 + s134 + s136 + s138 + s146 + s147 + s151 + s153 + s155 + s160 + s162 + s163 + s168 + s170 + s174 + s177 + s180 + s182 + s186 + s188 + s190 + s194 + s196 + s198 + s200 + s202 - c33 >= 0
index_34: s2 + s4 + s8 + s77 + s91 + s190 + s192 + s194 - c34 >= 0
index_35: s2 + s14 + s22 + s110 + s149 + s156 + s166 + s192 - c35 >= 0
index_36: s0 + s22 + s136 + s162 + s188 - c36 >= 0
index_37: s2 + s12 + s16 + s22 + s24 + s32 + s36 + s42 + s44 + s50 + s134 + s138 + s145 + s147 + s149 + s153 + s170 - c37 >= 0
index_38: s50 + s119 + s184 + s186 + s192 - c38 >= 0
index_39: s6 + s16 + s24 + s26 + s110 + s122 + s124 + s149 + s188 - c39 >= 0
index_40: s24 + s32 + s64 + s136 + s138 + s145 + s147 + s149 + s170 - c40 >= 0
index_41: s6 + s8 + s12 + s18 + s24 + s26 + s30 - c41 >= 0
index_42: s8 + s24 + s79 + s109 + s124 + s138 + s145 + s147 + s149 + s153 + s155 + s166 + s168 + s170 + s174 + s192 + s198 + s200 - c42 >= 0
index_43: s20 + s30 + s32 + s62 + s136 + s138 + s143 + s145 + s153 + s170 + s200 - c43 >= 0
index_44: s18 + s34 + s95 + s168 + s178 + s200 - c44 >= 0
index_45: s66 + s68 + s109 + s166 + s170 - c45 >= 0
index_46: s10 + s20 + s30 + s32 + s62 + s136 + s138 + s147 + s170 + s200 - c46 >= 0
index_47: s36 + s44 + s50 + s52 + s134 + s153 + s170 + s182 - c47 >= 0
index_48: s0 + s6 + s16 + s18 + s77 + s147 + s153 + s163 + s188 - c48 >= 0
index_49: s8 + s20 + s24 + s32 + s64 + s68 + s110 + s136 + s138 + s143 + s145 + s147 + s149 + s166 + s170 - c49 >= 0
index_50: s4 + s14 + s22 + s34 + s50 + s115 + s134 + s155 + s156 + s158 + s177 + s180 - c50 >= 0
index_51: s8 + s16 + s18 + s48 + s56 + s58 + s60 + s62 + s64 + s66 + s68 + s69 + s70 + s79 + s80 + s81 + s100 + s109 + s122 + s124 + s138 + s172 + s174 + s190 + s192 - c51 >= 0
index_52: s14 + s34 + s50 + s153 + s155 + s160 + s170 + s177 + s180 + s202 - c52 >= 0
index_53: s58 + s60 + s62 + s64 + s66 + s68 + s190 - c53 >= 0
index_54: s2 + s16 + s24 + s32 + s109 + s136 + s138 + s145 + s149 + s153 + s168 + s174 - c54 >= 0
index_55: s14 + s16 + s22 + s24 + s36 + s44 + s50 + s134 + s153 + s160 + s170 + s178 + s182 + s184 + s192 - c55 >= 0
index_56: s2 + s34 + s172 + s174 + s202 - c56 >= 0
index_57: s6 + s8 + s12 + s30 + s149 + s151 + s158 + s194 + s200 - c57 >= 0
index_58: s38 + s48 + s54 + s56 + s60 + s62 + s64 + s66 + s68 + s70 + s72 + s77 + s83 + s95 + s119 - c58 >= 0
length_max: 121 s0 + 1 s1 + 159 s2 + 4 s3 + 138 s4 + 1 s5 + 95 s6 + 1 s7 + 128 s8 + 1 s9 + 16 s10 + 1 s11 + 85 s12 + 1 s13 + 87 s14 + 1 s15 + 211 s16 + 1 s17 + 90 s18 + 1 s19 + 81 s20 + 1 s21 + 172 s22 + 1 s23 + 262 s24 + 1 s25 + 112 s26 + 1 s27 + 36 s28 + 1 s29 + 134 s30 + 14 s31 + 289 s32 + 1 s33 + 132 s34 + 1 s35 + 94 s36 + 1 s37 + 184 s38 + 1 s39 + 148 s40 + 1 s41 + 100 s42 + 1 s43 + 77 s44 + 1 s45 + 64 s46 + 1 s47 + 216 s48 + 1 s49 + 186 s50 + 1 s51 + 129 s52 + 1 s53 + 92 s54 + 1 s55 + 145 s56 + 1 s57 + 190 s58 + 1 s59 + 63 s60 + 1 s61 + 72 s62 + 1 s63 + 105 s64 + 1 s65 + 127 s66 + 1 s67 + 141 s68 + 34 s69 + 177 s70 + 1 s71 + 84 s72 + 1 s73 + 30 s74 + 17 s75 + 1 s76 + 131 s77 + 1 s78 + 68 s79 + 32 s80 + 28 s81 + 1 s82 + 21 s83 + 1 s84 + 19 s85 + 19 s86 + 1 s87 + 4 s88 + 10 s89 + 1 s90 + 23 s91 + 1 s92 + 1 s93 + 1 s94 + 54 s95 + 24 s96 + 1 s97 + 27 s98 + 1 s99 + 33 s100 + 1 s101 + 31 s102 + 1 s103 + 29 s104 + 1 s105 + 22 s106 + 1 s107 + 36 s108 + 97 s109 + 39 s110 + 32 s111 + 1 s112 + 29 s113 + 1 s114 + 60 s115 + 1 s116 + 1 s117 + 1 s118 + 94 s119 + 137 s120 + 1 s121 + 56 s122 + 1 s123 + 82 s124 + 1 s125 + 22 s126 + 1 s127 + 10 s128 + 1 s129 + 22 s130 + 1 s131 + 16 s132 + 1 s133 + 78 s134 + 1 s135 + 105 s136 + 1 s137 + 242 s138 + 1 s139 + 43 s140 + 52 s141 + 9 s142 + 195 s143 + 1 s144 + 238 s145 + 34 s146 + 151 s147 + 1 s148 + 250 s149 + 1 s150 + 102 s151 + 1 s152 + 191 s153 + 1 s154 + 131 s155 + 177 s156 + 1 s157 + 211 s158 + 1 s159 + 129 s160 + 1 s161 + 155 s162 + 61 s163 + 45 s164 + 1 s165 + 134 s166 + 1 s167 + 154 s168 + 1 s169 + 207 s170 + 1 s171 + 144 s172 + 1 s173 + 149 s174 + 88 s175 + 1 s176 + 109 s177 + 121 s178 + 1 s179 + 145 s180 + 1 s181 + 155 s182 + 1 s183 + 63 s184 + 1 s185 + 121 s186 + 1 s187 + 99 s188 + 1 s189 + 166 s190 + 1 s191 + 157 s192 + 1 s193 + 100 s194 + 1 s195 + 19 s196 + 1 s197 + 82 s198 + 1 s199 + 98 s200 + 1 s201 + 138 s202 <= 5643
length_min: 121 s0 + 1 s1 + 159 s2 + 4 s3 + 138 s4 + 1 s5 + 95 s6 + 1 s7 + 128 s8 + 1 s9 + 16 s10 + 1 s11 + 85 s12 + 1 s13 + 87 s14 + 1 s15 + 211 s16 + 1 s17 + 90 s18 + 1 s19 + 81 s20 + 1 s21 + 172 s22 + 1 s23 + 262 s24 + 1 s25 + 112 s26 + 1 s27 + 36 s28 + 1 s29 + 134 s30 + 14 s31 + 289 s32 + 1 s33 + 132 s34 + 1 s35 + 94 s36 + 1 s37 + 184 s38 + 1 s39 + 148 s40 + 1 s41 + 100 s42 + 1 s43 + 77 s44 + 1 s45 + 64 s46 + 1 s47 + 216 s48 + 1 s49 + 186 s50 + 1 s51 + 129 s52 + 1 s53 + 92 s54 + 1 s55 + 145 s56 + 1 s57 + 190 s58 + 1 s59 + 63 s60 + 1 s61 + 72 s62 + 1 s63 + 105 s64 + 1 s65 + 127 s66 + 1 s67 + 141 s68 + 34 s69 + 177 s70 + 1 s71 + 84 s72 + 1 s73 + 30 s74 + 17 s75 + 1 s76 + 131 s77 + 1 s78 + 68 s79 + 32 s80 + 28 s81 + 1 s82 + 21 s83 + 1 s84 + 19 s85 + 19 s86 + 1 s87 + 4 s88 + 10 s89 + 1 s90 + 23 s91 + 1 s92 + 1 s93 + 1 s94 + 54 s95 + 24 s96 + 1 s97 + 27 s98 + 1 s99 + 33 s100 + 1 s101 + 31 s102 + 1 s103 + 29 s104 + 1 s105 + 22 s106 + 1 s107 + 36 s108 + 97 s109 + 39 s110 + 32 s111 + 1 s112 + 29 s113 + 1 s114 + 60 s115 + 1 s116 + 1 s117 + 1 s118 + 94 s119 + 137 s120 + 1 s121 + 56 s122 + 1 s123 + 82 s124 + 1 s125 + 22 s126 + 1 s127 + 10 s128 + 1 s129 + 22 s130 + 1 s131 + 16 s132 + 1 s133 + 78 s134 + 1 s135 + 105 s136 + 1 s137 + 242 s138 + 1 s139 + 43 s140 + 52 s141 + 9 s142 + 195 s143 + 1 s144 + 238 s145 + 34 s146 + 151 s147 + 1 s148 + 250 s149 + 1 s150 + 102 s151 + 1 s152 + 191 s153 + 1 s154 + 131 s155 + 177 s156 + 1 s157 + 211 s158 + 1 s159 + 129 s160 + 1 s161 + 155 s162 + 61 s163 + 45 s164 + 1 s165 + 134 s166 + 1 s167 + 154 s168 + 1 s169 + 207 s170 + 1 s171 + 144 s172 + 1 s173 + 149 s174 + 88 s175 + 1 s176 + 109 s177 + 121 s178 + 1 s179 + 145 s180 + 1 s181 + 155 s182 + 1 s183 + 63 s184 + 1 s185 + 121 s186 + 1 s187 + 99 s188 + 1 s189 + 166 s190 + 1 s191 + 157 s192 + 1 s193 + 100 s194 + 1 s195 + 19 s196 + 1 s197 + 82 s198 + 1 s199 + 98 s200 + 1 s201 + 138 s202 >= 4232



Binary
c0
c1
c2
c3
c4
c5
c6
c7
c8
c9
c10
c11
c12
c13
c14
c15
c16
c17
c18
c19
c20
c21
c22
c23
c24
c25
c26
c27
c28
c29
c30
c31
c32
c33
c34
c35
c36
c37
c38
c39
c40
c41
c42
c43
c44
c45
c46
c47
c48
c49
c50
c51
c52
c53
c54
c55
c56
c57
c58
s0
s1
s2
s3
s4
s5
s6
s7
s8
s9
s10
s11
s12
s13
s14
s15
s16
s17
s18
s19
s20
s21
s22
s23
s24
s25
s26
s27
s28
s29
s30
s31
s32
s33
s34
s35
s36
s37
s38
s39
s40
s41
s42
s43
s44
s45
s46
s47
s48
s49
s50
s51
s52
s53
s54
s55
s56
s57
s58
s59
s60
s61
s62
s63
s64
s65
s66
s67
s68
s69
s70
s71
s72
s73
s74
s75
s76
s77
s78
s79
s80
s81
s82
s83
s84
s85
s86
s87
s88
s89
s90
s91
s92
s93
s94
s95
s96
s97
s98
s99
s100
s101
s102
s103
s104
s105
s106
s107
s108
s109
s110
s111
s112
s113
s114
s115
s116
s117
s118
s119
s120
s121
s122
s123
s124
s125
s126
s127
s128
s129
s130
s131
s132
s133
s134
s135
s136
s137
s138
s139
s140
s141
s142
s143
s144
s145
s146
s147
s148
s149
s150
s151
s152
s153
s154
s155
s156
s157
s158
s159
s160
s161
s162
s163
s164
s165
s166
s167
s168
s169
s170
s171
s172
s173
s174
s175
s176
s177
s178
s179
s180
s181
s182
s183
s184
s185
s186
s187
s188
s189
s190
s191
s192
s193
s194
s195
s196
s197
s198
s199
s200
s201
s202
End